(set-info :smt-lib-version 2.6)
(set-logic QF_LIA)
(set-info :category "industrial")
(set-info :status sat)
(declare-fun x0 () Int)
(declare-fun x1 () Int)
(declare-fun x10 () Int)
(declare-fun x11 () Int)
(declare-fun x12 () Int)
(declare-fun x13 () Int)
(declare-fun x14 () Int)
(declare-fun x15 () Int)
(declare-fun x16 () Int)
(declare-fun x17 () Int)
(declare-fun x18 () Int)
(declare-fun x19 () Int)
(declare-fun x2 () Int)
(declare-fun x20 () Int)
(declare-fun x21 () Int)
(declare-fun x22 () Int)
(declare-fun x23 () Int)
(declare-fun x24 () Int)
(declare-fun x25 () Int)
(declare-fun x26 () Int)
(declare-fun x27 () Int)
(declare-fun x28 () Int)
(declare-fun x29 () Int)
(declare-fun x3 () Int)
(declare-fun x30 () Int)
(declare-fun x31 () Int)
(declare-fun x32 () Int)
(declare-fun x33 () Int)
(declare-fun x34 () Int)
(declare-fun x4 () Int)
(declare-fun x5 () Int)
(declare-fun x6 () Int)
(declare-fun x7 () Int)
(declare-fun x8 () Int)
(declare-fun x9 () Int)
(assert (let ((?v_35 (* 0 x1)) (?v_2 (* 0 x10)) (?v_39 (* 0 x18)) (?v_40 (* 0 x19)) (?v_64 (* 0 x21)) (?v_12 (* 0 x25)) (?v_13 (* 0 x26)) (?v_42 (* 0 x29)) (?v_73 (* 0 x31)) (?v_0 (* 0 x4)) (?v_23 (* 0 x5)) (?v_32 (* 0 x7)) (?v_24 (* 1 x17)) (?v_86 (* 1 x2)) (?v_29 (* 1 x23)) (?v_26 (* 1 x24)) (?v_5 (* 0 x34)) (?v_78 (* 0 x11)) (?v_25 (* 1 x21)) (?v_15 (* 0 x30)) (?v_4 (* 0 x33)) (?v_37 (* 0 x12)) (?v_11 (* 0 x17)) (?v_14 (* 0 x28)) (?v_6 (* 0 x8)) (?v_17 (* 1 x9))) (let ((?v_33 (+ ?v_6 ?v_17)) (?v_53 (* 0 x14)) (?v_7 (* 1 x12)) (?v_8 (* 1 x13)) (?v_28 (* 1 x18)) (?v_102 (* 0 x22)) (?v_21 (* 0 x23)) (?v_41 (* 0 x24)) (?v_16 (* 1 x31)) (?v_51 (* 0 x32)) (?v_63 (* 0 x20)) (?v_92 (* 1 x6)) (?v_80 (* 0 x9))) (let ((?v_116 (+ ?v_6 ?v_80)) (?v_27 (* 1 x1)) (?v_36 (* 1 x11)) (?v_75 (* 1 x16)) (?v_50 (* 0 x27)) (?v_87 (* 1 x3)) (?v_44 (* 1 x33)) (?v_34 (* 0 x0)) (?v_38 (* 0 x13)) (?v_43 (* 1 x20)) (?v_49 (* 1 x22)) (?v_65 (* 1 x4)) (?v_45 (* 1 x0)) (?v_54 (* 1 x10)) (?v_109 (* 1 x26)) (?v_59 (* 1 x32)) (?v_58 (* 1 x27)) (?v_103 (* 2 x4)) (?v_66 (+ ?v_32 ?v_33)) (?v_46 (* 0 x16)) (?v_88 (* 1 x14)) (?v_71 (* 0 x2)) (?v_76 (* 0 x3)) (?v_85 (* 1 x19)) (?v_77 (* 1 x28)) (?v_97 (* 1 x34)) (?v_95 (* 1 x25)) (?v_107 (* 1 x7))) (let ((?v_104 (+ ?v_107 ?v_6))) (let ((?v_113 (+ ?v_65 (+ ?v_23 ?v_104))) (?v_84 (* 0 x15)) (?v_98 (* 0 x6)) (?v_111 (* 2 x7)) (?v_89 (* 2 x27)) (?v_110 (* 1 x29)) (?v_91 (* 1 x5))) (let ((?v_115 (+ ?v_91 ?v_6)) (?v_130 (* 2 x31)) (?v_108 (* 1 x8))) (let ((?v_90 (+ ?v_108 ?v_17)) (?v_128 (* 2 x17)) (?v_101 (* 1 x30)) (?v_114 (* 2 x10)) (?v_123 (* 2 x8)) (?v_125 (* 2 x30)) (?v_122 (* 2 x15)) (?v_129 (* 2 x9)) (?v_126 (* 1 x15)) (?v_3 (* (- 1) x30)) (?v_106 (* (- 1) x20)) (?v_52 (* (- 1) x8))) (let ((?v_81 (+ ?v_52 ?v_5)) (?v_121 (* (- 2) x16)) (?v_124 (* (- 2) x24)) (?v_47 (* (- 1) x26)) (?v_19 (* (- 2) x6)) (?v_82 (* (- 1) x27)) (?v_61 (* (- 1) x29)) (?v_62 (* (- 1) x31)) (?v_1 (* (- 1) x0)) (?v_31 (* (- 1) x5)) (?v_18 (* (- 1) x1)) (?v_9 (* (- 1) x15)) (?v_105 (* (- 1) x16)) (?v_20 (* (- 1) x19)) (?v_22 (* (- 1) x28)) (?v_10 (* (- 1) x7)) (?v_74 (* (- 1) x21)) (?v_30 (* (- 1) x24)) (?v_68 (* (- 1) x10)) (?v_93 (* (- 1) x14)) (?v_99 (* (- 1) x11)) (?v_55 (* (- 1) x12)) (?v_60 (* (- 1) x13)) (?v_70 (* (- 1) x33)) (?v_48 (* (- 1) x6)) (?v_56 (* (- 1) x2)) (?v_83 (* (- 1) x32)) (?v_57 (* (- 1) x9)) (?v_72 (* (- 1) x18)) (?v_100 (* (- 1) x25)) (?v_120 (* (- 2) x31)) (?v_79 (* (- 1) x22)) (?v_69 (* (- 1) x17)) (?v_67 (* (- 1) x34)) (?v_127 (* (- 2) x8))) (let ((?v_112 (+ ?v_26 ?v_67)) (?v_118 (* (- 1) x23)) (?v_117 (* (- 3) x26)) (?v_96 (* (- 1) x3)) (?v_94 (* (- 1) x4)) (?v_119 (* (- 2) x3))) (and (<= (+ ?v_35 (+ ?v_2 (+ (* (- 2) x15) (+ ?v_39 (+ ?v_3 (+ ?v_40 (+ ?v_64 (+ ?v_12 (+ ?v_13 (+ ?v_42 (+ ?v_73 (+ ?v_0 (+ ?v_23 (+ ?v_32 (+ ?v_24 (+ ?v_86 (+ ?v_106 (+ ?v_29 (+ ?v_26 (+ (* 3 x3) ?v_81)))))))))))))))))))) 1) (<= (+ ?v_78 (+ ?v_121 (+ ?v_25 (+ ?v_124 (+ ?v_47 (+ ?v_19 (+ ?v_82 (+ ?v_61 (+ ?v_62 (+ ?v_15 (+ ?v_4 (+ ?v_0 (+ (* (- 2) x7) (+ ?v_1 (+ ?v_31 (+ ?v_37 (+ ?v_11 (+ ?v_14 ?v_33)))))))))))))))))) 1) (<= (+ ?v_1 (+ ?v_18 (+ ?v_2 (+ ?v_53 (+ ?v_7 (+ ?v_8 (+ ?v_9 (+ ?v_105 (+ ?v_28 (+ ?v_20 (+ ?v_102 (+ ?v_21 (+ ?v_41 (+ ?v_22 (+ (* 2 x29) (+ ?v_3 (+ ?v_16 (+ ?v_51 (+ ?v_4 (+ ?v_10 (+ ?v_63 (+ ?v_5 (+ ?v_92 ?v_116))))))))))))))))))))))) 1) (<= (+ (* (- 2) x10) (+ ?v_1 (+ ?v_27 (+ ?v_36 (+ ?v_7 (+ ?v_8 (+ (* (- 2) x20) (+ ?v_9 (+ ?v_74 (+ ?v_75 (+ ?v_30 (+ ?v_10 (+ ?v_11 (+ ?v_12 (+ ?v_13 (+ ?v_50 (+ (* 3 x2) (+ ?v_14 (+ ?v_87 (+ ?v_15 (+ ?v_16 (+ ?v_0 (+ ?v_44 (+ ?v_5 ?v_17)))))))))))))))))))))))) 0) (<= (+ ?v_18 (+ (* (- 2) x27) (+ ?v_19 (+ ?v_68 (+ ?v_93 (+ ?v_34 (+ ?v_38 (+ ?v_9 (+ ?v_20 (+ ?v_21 (+ ?v_12 (+ ?v_22 (+ ?v_23 (+ ?v_24 (+ (* 2 x2) (+ ?v_43 (+ ?v_25 (+ ?v_49 (+ ?v_26 (+ ?v_5 (+ ?v_65 ?v_6))))))))))))))))))))) (- 1)) (<= (+ ?v_99 (+ ?v_55 (+ ?v_60 (+ ?v_45 (+ ?v_27 (+ ?v_54 (+ ?v_9 (+ ?v_28 (+ ?v_29 (+ ?v_30 (+ ?v_109 (+ ?v_59 (+ ?v_70 (+ ?v_58 (+ ?v_103 (+ ?v_31 (+ ?v_48 (+ ?v_14 (+ ?v_5 ?v_66))))))))))))))))))) 1) (<= (+ ?v_34 (+ ?v_35 (+ ?v_36 (+ ?v_37 (+ ?v_38 (+ ?v_9 (+ ?v_46 (+ ?v_39 (+ ?v_56 (+ ?v_83 (+ ?v_57 (+ ?v_11 (+ ?v_40 (+ ?v_41 (+ ?v_12 (+ ?v_42 (+ ?v_23 (+ ?v_43 (+ ?v_44 (+ (* 2 x28) ?v_6)))))))))))))))))))) (- 1)) (<= (+ ?v_18 (+ ?v_38 (+ ?v_45 (+ ?v_36 (+ ?v_88 (+ ?v_9 (+ ?v_72 (+ ?v_46 (+ ?v_30 (+ ?v_100 (+ ?v_47 (+ ?v_48 (+ ?v_11 (+ ?v_71 (+ ?v_49 (+ ?v_50 (+ ?v_42 (+ ?v_76 (+ ?v_51 (+ ?v_23 (+ ?v_43 ?v_52))))))))))))))))))))) 0) (<= (+ ?v_120 (+ ?v_1 (+ ?v_27 (+ ?v_53 (+ ?v_54 (+ ?v_55 (+ ?v_8 (+ ?v_9 (+ ?v_56 (+ ?v_79 (+ ?v_3 (+ ?v_57 (+ ?v_11 (+ ?v_13 (+ ?v_28 (+ ?v_23 (+ ?v_32 (+ ?v_85 (+ ?v_58 (+ ?v_77 (+ ?v_59 (+ ?v_6 ?v_97)))))))))))))))))))))) 0) (<= (+ (* (- 2) x11) (+ ?v_55 (+ ?v_60 (+ ?v_34 (+ ?v_2 (+ ?v_9 (+ ?v_46 (+ ?v_69 (+ ?v_30 (+ ?v_61 (+ ?v_62 (+ ?v_40 (+ ?v_63 (+ ?v_64 (+ ?v_49 (+ ?v_29 (+ (* 2 x25) (+ ?v_4 (+ ?v_67 (+ ?v_65 ?v_66)))))))))))))))))))) 1) (<= (+ ?v_18 (+ ?v_45 (+ ?v_54 (+ ?v_36 (+ ?v_127 (+ ?v_9 (+ ?v_47 (+ ?v_48 (+ ?v_46 (+ ?v_39 (+ ?v_40 (+ ?v_64 (+ ?v_95 (+ ?v_14 (+ ?v_42 (+ ?v_23 (+ ?v_24 ?v_112))))))))))))))))) 0) (<= (+ ?v_68 (+ ?v_60 (+ ?v_69 (+ ?v_20 (+ ?v_118 (+ ?v_47 (+ ?v_62 (+ ?v_70 (+ ?v_34 (+ ?v_35 (+ ?v_36 (+ ?v_39 (+ ?v_71 (+ ?v_64 (+ ?v_12 (+ ?v_42 (+ ?v_15 (+ ?v_0 (+ ?v_7 (+ ?v_14 (* 2 x6))))))))))))))))))))) 0) (<= (+ ?v_27 (+ ?v_36 (+ (* (- 2) x13) (+ ?v_72 (+ ?v_61 (+ ?v_3 (+ ?v_34 (+ ?v_37 (+ ?v_53 (+ ?v_40 (+ ?v_71 (+ ?v_63 (+ ?v_14 (+ ?v_73 (+ ?v_51 (+ ?v_67 ?v_113)))))))))))))))) 0) (<= (+ ?v_117 (+ ?v_74 (+ ?v_62 (+ ?v_70 (+ ?v_48 (+ ?v_2 (+ (* 2 x16) (+ ?v_71 (+ ?v_41 (+ ?v_12 (+ ?v_50 (+ (* 2 x19) (+ ?v_14 (+ ?v_42 (+ ?v_15 (+ ?v_43 (+ ?v_67 (+ ?v_65 (+ ?v_32 ?v_6))))))))))))))))))) (- 1)) (<= (+ ?v_18 (+ (* (- 2) x12) (+ ?v_70 (+ ?v_38 (+ ?v_53 (+ ?v_20 (+ ?v_45 (+ ?v_52 (+ ?v_84 (+ ?v_75 (+ ?v_28 (+ ?v_71 (+ ?v_63 (+ ?v_64 (+ ?v_29 (+ ?v_12 (+ ?v_76 (+ ?v_51 (+ ?v_58 (+ ?v_23 (+ ?v_98 (+ ?v_77 (+ ?v_17 ?v_111))))))))))))))))))))))) (- 1)) (<= (+ ?v_35 (+ ?v_78 (+ (* (- 3) x24) (+ ?v_69 (+ ?v_79 (+ ?v_47 (+ ?v_39 (+ ?v_48 (+ ?v_10 (+ ?v_40 (+ ?v_63 (+ ?v_29 (+ ?v_42 (+ ?v_76 (+ ?v_15 (+ ?v_73 (+ ?v_4 (+ ?v_0 (+ ?v_80 (+ ?v_89 (+ ?v_77 ?v_81))))))))))))))))))))) 0) (<= (+ ?v_74 (+ ?v_36 (+ ?v_53 (+ ?v_21 (+ ?v_8 (+ ?v_69 (+ ?v_82 (+ ?v_96 (+ ?v_83 (+ ?v_48 (+ ?v_34 (+ ?v_84 (+ ?v_46 (+ ?v_39 (+ ?v_85 (+ ?v_86 (+ ?v_49 (+ ?v_26 (+ ?v_14 (+ ?v_110 (+ ?v_32 ?v_115))))))))))))))))))))) (- 1)) (<= (+ ?v_20 (+ ?v_94 (+ ?v_48 (+ ?v_34 (+ ?v_78 (+ ?v_54 (+ ?v_84 (+ ?v_39 (+ ?v_75 (+ ?v_41 (+ ?v_14 (+ ?v_42 (+ ?v_24 (+ ?v_86 (+ ?v_43 (+ ?v_49 (+ ?v_58 (+ ?v_87 (+ ?v_130 (+ ?v_5 (+ ?v_23 ?v_90))))))))))))))))))))) (- 1)) (<= (+ (* (- 2) x1) (+ ?v_1 (+ ?v_2 (+ ?v_55 (+ ?v_8 (+ ?v_88 (+ ?v_84 (+ ?v_75 (+ ?v_71 (+ ?v_25 (+ ?v_49 (+ ?v_21 (+ ?v_12 (+ ?v_73 (+ ?v_0 (+ ?v_26 (+ ?v_89 (+ ?v_14 (+ ?v_59 (+ ?v_44 (+ ?v_5 ?v_90))))))))))))))))))))) 0) (<= (+ ?v_1 (+ ?v_79 (+ (* 2 x1) (+ ?v_36 (+ ?v_83 (+ ?v_2 (+ ?v_37 (+ ?v_53 (+ ?v_52 (+ ?v_84 (+ ?v_46 (+ ?v_39 (+ ?v_71 (+ ?v_21 (+ ?v_41 (+ ?v_12 (+ ?v_13 (+ ?v_76 (+ ?v_85 (+ ?v_58 (+ ?v_16 (+ ?v_44 (+ ?v_5 (+ ?v_91 (+ ?v_92 ?v_17))))))))))))))))))))))))) 1) (<= (+ ?v_60 (+ ?v_93 (+ ?v_62 (+ ?v_94 (+ ?v_31 (+ ?v_2 (+ ?v_45 (+ ?v_27 (+ ?v_52 (+ ?v_84 (+ ?v_46 (+ ?v_71 (+ ?v_128 (+ ?v_63 (+ ?v_21 (+ ?v_41 (+ ?v_13 (+ ?v_95 (+ ?v_51 (+ ?v_101 (+ (* 2 x33) (+ (* 4 x27) ?v_5)))))))))))))))))))))) 0) (<= (+ ?v_1 (+ ?v_96 (+ ?v_83 (+ ?v_48 (+ ?v_2 (+ ?v_36 (+ ?v_55 (+ ?v_53 (+ ?v_84 (+ ?v_46 (+ ?v_39 (+ ?v_71 (+ ?v_41 (+ ?v_0 (+ ?v_32 (+ ?v_85 (+ ?v_43 (+ ?v_25 (+ ?v_29 (+ ?v_77 (+ ?v_97 ?v_90))))))))))))))))))))) 1) (<= (+ ?v_35 (+ ?v_93 (+ ?v_30 (+ ?v_31 (+ ?v_2 (+ ?v_37 (+ ?v_84 (+ ?v_39 (+ (* 3 x16) (+ ?v_40 (+ ?v_63 (+ ?v_64 (+ ?v_29 (+ ?v_50 (+ ?v_76 (+ ?v_73 (+ ?v_4 (+ ?v_0 (+ ?v_98 (+ ?v_6 (+ ?v_80 ?v_97))))))))))))))))))))) 0) (<= (+ ?v_35 (+ ?v_99 (+ ?v_79 (+ (* (- 2) x4) (+ ?v_93 (+ ?v_100 (+ ?v_114 (+ ?v_22 (+ ?v_96 (+ ?v_83 (+ ?v_57 (+ ?v_84 (+ ?v_39 (+ ?v_40 (+ ?v_71 (+ ?v_41 (+ ?v_13 (+ ?v_4 (+ ?v_58 (+ ?v_101 (+ ?v_67 (+ ?v_23 (+ ?v_92 ?v_32))))))))))))))))))))))) 1) (<= (+ (* (- 2) x0) (+ ?v_18 (+ ?v_38 (+ ?v_20 (+ ?v_62 (+ ?v_48 (+ ?v_7 (+ ?v_84 (+ ?v_46 (+ ?v_28 (+ ?v_71 (+ ?v_24 (+ ?v_63 (+ ?v_102 (+ ?v_13 (+ ?v_25 (+ ?v_29 (+ ?v_12 (+ ?v_14 (+ ?v_76 (+ ?v_101 (+ ?v_44 (+ ?v_67 (+ ?v_103 ?v_104)))))))))))))))))))))))) (- 1)) (<= (+ ?v_60 (+ ?v_105 (+ ?v_34 (+ ?v_2 (+ ?v_37 (+ ?v_11 (+ ?v_40 (+ ?v_86 (+ ?v_106 (+ ?v_82 (+ ?v_70 (+ ?v_84 (+ ?v_41 (+ ?v_12 (+ ?v_14 (+ ?v_15 (+ ?v_59 (+ ?v_67 (+ ?v_23 (+ ?v_98 (+ ?v_107 ?v_108))))))))))))))))))))) 1) (<= (+ ?v_18 (+ (* (- 2) x17) (+ ?v_74 (+ ?v_61 (+ ?v_34 (+ ?v_54 (+ ?v_36 (+ ?v_88 (+ ?v_84 (+ ?v_28 (+ ?v_63 (+ ?v_102 (+ ?v_21 (+ ?v_41 (+ ?v_109 (+ ?v_89 (+ ?v_14 (+ ?v_15 (+ ?v_4 (+ ?v_67 (+ ?v_23 (+ ?v_52 ?v_17)))))))))))))))))))))) 0) (<= (+ ?v_68 (+ ?v_36 (+ ?v_31 (+ ?v_37 (+ ?v_38 (+ ?v_45 (+ ?v_88 (+ ?v_84 (+ ?v_46 (+ ?v_102 (+ ?v_12 (+ ?v_13 (+ ?v_76 (+ ?v_15 (+ ?v_4 (+ ?v_0 (+ ?v_24 (+ ?v_86 (+ ?v_110 (+ ?v_67 ?v_111)))))))))))))))))))) 1) (<= (+ ?v_1 (+ ?v_35 (+ ?v_68 (+ ?v_99 (+ ?v_38 (+ ?v_53 (+ ?v_105 (+ ?v_96 (+ ?v_7 (+ ?v_84 (+ ?v_11 (+ ?v_39 (+ ?v_40 (+ ?v_71 (+ ?v_64 (+ ?v_13 (+ ?v_50 (+ ?v_51 (+ ?v_32 (+ ?v_43 (+ ?v_49 ?v_112))))))))))))))))))))) 0) (<= (+ ?v_68 (+ ?v_69 (+ ?v_20 (+ ?v_74 (+ ?v_82 (+ ?v_34 (+ ?v_27 (+ ?v_78 (+ ?v_41 (+ ?v_42 (+ ?v_76 (+ ?v_15 (+ ?v_98 (+ ?v_80 (+ ?v_7 (+ ?v_8 (+ ?v_88 (+ ?v_75 (+ ?v_49 (+ ?v_14 (+ ?v_16 (+ ?v_44 (+ ?v_5 ?v_113))))))))))))))))))))))) 0) (<= (+ ?v_18 (+ ?v_78 (+ ?v_72 (+ ?v_100 (+ ?v_82 (+ ?v_3 (+ ?v_94 (+ ?v_34 (+ ?v_46 (+ ?v_71 (+ ?v_102 (+ ?v_73 (+ ?v_51 (+ ?v_114 (+ ?v_37 (+ ?v_24 (+ ?v_25 (+ ?v_77 (+ ?v_5 ?v_115))))))))))))))))))) 0) (<= (+ ?v_1 (+ ?v_27 (+ ?v_78 (+ ?v_105 (+ ?v_56 (+ ?v_74 (+ ?v_37 (+ ?v_63 (+ ?v_21 (+ ?v_41 (+ ?v_12 (+ ?v_13 (+ ?v_42 (+ ?v_76 (+ ?v_73 (+ ?v_58 (+ ?v_5 (+ ?v_23 (+ ?v_98 ?v_116))))))))))))))))))) 1) (<= (+ ?v_1 (+ ?v_99 (+ ?v_105 (+ ?v_83 (+ ?v_31 (+ ?v_2 (+ ?v_8 (+ ?v_40 (+ ?v_71 (+ ?v_64 (+ ?v_102 (+ ?v_14 (+ ?v_42 (+ ?v_76 (+ ?v_15 (+ ?v_98 (+ ?v_24 (+ ?v_63 (+ ?v_95 (+ ?v_16 (+ ?v_5 ?v_123))))))))))))))))))))) (- 1)) (<= (+ ?v_53 (+ ?v_100 (+ ?v_47 (+ ?v_61 (+ ?v_38 (+ ?v_46 (+ ?v_39 (+ ?v_20 (+ ?v_31 (+ ?v_10 (+ ?v_57 (+ ?v_7 (+ ?v_11 (+ ?v_63 (+ ?v_64 (+ ?v_29 (+ ?v_14 (+ ?v_51 (+ ?v_44 (+ ?v_125 (+ ?v_5 (+ ?v_98 ?v_6)))))))))))))))))))))) 1) (<= (+ ?v_117 (+ ?v_35 (+ ?v_119 (+ ?v_72 (+ ?v_118 (+ ?v_82 (+ ?v_48 (+ ?v_46 (+ ?v_10 (+ ?v_11 (+ ?v_71 (+ ?v_106 (+ ?v_49 (+ ?v_12 (+ ?v_42 (+ ?v_51 (+ ?v_44 (+ ?v_5 (+ ?v_0 (+ ?v_23 ?v_33)))))))))))))))))))) 0) (<= (+ (* (- 3) x0) (+ ?v_68 (+ ?v_55 (+ ?v_93 (+ ?v_62 (+ ?v_38 (+ ?v_64 (+ ?v_75 (+ ?v_28 (+ ?v_49 (+ ?v_30 (+ ?v_40 (+ ?v_95 (+ ?v_14 (+ ?v_23 (+ ?v_98 (+ ?v_43 (+ ?v_101 (+ ?v_6 (+ ?v_122 ?v_129)))))))))))))))))))) (- 1)) (<= (+ ?v_119 (+ ?v_120 (+ ?v_1 (+ ?v_27 (+ ?v_93 (+ ?v_2 (+ ?v_37 (+ ?v_38 (+ ?v_75 (+ ?v_69 (+ ?v_40 (+ ?v_71 (+ ?v_106 (+ ?v_102 (+ ?v_25 (+ ?v_21 (+ ?v_100 (+ ?v_58 (+ ?v_14 (+ ?v_110 (+ ?v_59 (+ ?v_32 (+ ?v_6 ?v_126))))))))))))))))))))))) 0) (<= (+ ?v_35 (+ ?v_121 (+ (* (- 2) x21) (+ ?v_79 (+ ?v_94 (+ ?v_34 (+ ?v_2 (+ ?v_37 (+ ?v_38 (+ ?v_88 (+ ?v_71 (+ ?v_41 (+ ?v_12 (+ ?v_50 (+ ?v_23 (+ ?v_98 (+ ?v_24 (+ ?v_63 (+ ?v_59 (+ ?v_107 (+ ?v_122 ?v_123))))))))))))))))))))) 1) (<= (+ ?v_38 (+ ?v_121 (+ ?v_72 (+ ?v_79 (+ ?v_21 (+ ?v_13 (+ ?v_82 (+ ?v_42 (+ ?v_96 (+ ?v_73 (+ ?v_83 (+ ?v_4 (+ ?v_98 (+ ?v_10 (+ ?v_57 (+ ?v_71 (+ ?v_45 (+ ?v_114 (+ ?v_63 (+ ?v_41 (+ ?v_14 ?v_23))))))))))))))))))))) 1) (<= (+ ?v_36 (+ ?v_56 (+ ?v_124 (+ ?v_10 (+ ?v_2 (+ ?v_37 (+ ?v_38 (+ ?v_53 (+ ?v_46 (+ (* 2 x18) (+ ?v_40 (+ ?v_12 (+ ?v_42 (+ ?v_76 (+ ?v_4 (+ ?v_0 (+ ?v_23 (+ ?v_80 (+ ?v_45 (+ ?v_24 (+ ?v_125 ?v_97))))))))))))))))))))) 0) (<= (+ ?v_18 (+ ?v_99 (+ ?v_20 (+ ?v_70 (+ ?v_48 (+ ?v_57 (+ ?v_34 (+ ?v_2 (+ ?v_53 (+ ?v_39 (+ ?v_21 (+ ?v_95 (+ ?v_110 (+ ?v_15 (+ ?v_59 (+ ?v_65 (+ ?v_23 (+ ?v_32 (+ ?v_126 (+ ?v_43 (+ ?v_26 ?v_58))))))))))))))))))))) 0) (<= (+ ?v_78 (+ ?v_93 (+ ?v_74 (+ ?v_118 (+ ?v_39 (+ ?v_71 (+ ?v_45 (+ ?v_114 (+ ?v_7 (+ ?v_63 (+ ?v_102 (+ ?v_41 (+ ?v_76 (+ ?v_4 (+ ?v_127 (+ ?v_126 (+ ?v_109 (+ ?v_128 (+ ?v_5 ?v_107))))))))))))))))))) (- 1)) (<= (+ ?v_35 (+ ?v_99 (+ ?v_72 (+ ?v_47 (+ ?v_38 (+ ?v_22 (+ ?v_11 (+ ?v_64 (+ ?v_102 (+ ?v_41 (+ ?v_12 (+ ?v_42 (+ ?v_51 (+ ?v_45 (+ ?v_126 (+ ?v_75 (+ ?v_85 (+ ?v_43 (+ ?v_101 (+ ?v_92 (+ ?v_108 ?v_129))))))))))))))))))))) 0) (<= (+ (* (- 2) x23) (+ ?v_1 (+ ?v_47 (+ ?v_35 (+ ?v_57 (+ ?v_78 (+ ?v_88 (+ ?v_10 (+ ?v_11 (+ ?v_40 (+ ?v_71 (+ ?v_64 (+ ?v_102 (+ ?v_12 (+ ?v_50 (+ ?v_76 (+ ?v_15 (+ ?v_73 (+ ?v_51 (+ ?v_4 (+ ?v_0 (+ ?v_23 (+ ?v_6 (+ ?v_126 (+ ?v_26 ?v_97))))))))))))))))))))))))) (- 1)) (<= (+ ?v_53 (+ ?v_46 (+ ?v_45 (+ ?v_54 (+ ?v_7 (+ ?v_8 (+ ?v_106 (+ ?v_64 (+ ?v_102 (+ ?v_100 (+ ?v_3 (+ ?v_41 (+ ?v_76 (+ ?v_51 (+ ?v_58 (+ ?v_14 (+ ?v_16 (+ ?v_44 (+ ?v_65 (+ ?v_23 (+ ?v_32 (+ ?v_52 (+ ?v_126 (+ ?v_97 ?v_17)))))))))))))))))))))))) 0) (<= (+ ?v_1 (+ ?v_35 (+ ?v_68 (+ ?v_47 (+ ?v_78 (+ ?v_46 (+ ?v_39 (+ ?v_71 (+ ?v_29 (+ ?v_58 (+ ?v_22 (+ ?v_63 (+ ?v_76 (+ ?v_15 (+ ?v_23 (+ ?v_98 (+ ?v_32 (+ ?v_126 (+ ?v_130 ?v_97))))))))))))))))))) 1) (<= (+ ?v_18 (+ ?v_68 (+ ?v_99 (+ ?v_60 (+ ?v_105 (+ ?v_3 (+ ?v_37 (+ ?v_40 (+ ?v_64 (+ ?v_102 (+ ?v_41 (+ ?v_12 (+ ?v_98 (+ ?v_126 (+ ?v_43 (+ ?v_29 (+ ?v_58 (+ ?v_110 (+ ?v_87 (+ ?v_67 (+ ?v_23 ?v_6))))))))))))))))))))) 1) (<= (+ ?v_79 (+ ?v_35 (+ ?v_2 (+ ?v_36 (+ ?v_38 (+ ?v_22 (+ ?v_76 (+ ?v_3 (+ ?v_57 (+ ?v_4 (+ ?v_0 (+ ?v_45 (+ ?v_126 (+ ?v_25 (+ ?v_26 (+ ?v_58 (+ ?v_16 (+ ?v_67 ?v_107)))))))))))))))))) 1) (<= (+ ?v_3 (+ ?v_31 (+ ?v_2 (+ ?v_38 (+ ?v_46 (+ ?v_63 (+ ?v_102 (+ ?v_21 (+ ?v_42 (+ ?v_76 (+ ?v_4 (+ ?v_0 (+ ?v_98 (+ ?v_32 (+ ?v_127 (+ ?v_80 (+ ?v_126 (+ ?v_58 (+ ?v_77 (+ ?v_59 ?v_67)))))))))))))))))))) (- 1)) (<= (+ ?v_1 (+ ?v_18 (+ ?v_36 (+ ?v_20 (+ ?v_56 (+ ?v_74 (+ ?v_96 (+ ?v_48 (+ ?v_10 (+ ?v_54 (+ ?v_37 (+ ?v_88 (+ ?v_46 (+ ?v_11 (+ ?v_49 (+ ?v_41 (+ ?v_12 (+ ?v_50 (+ ?v_42 (+ ?v_15 (+ ?v_73 (+ ?v_43 (+ ?v_59 ?v_52))))))))))))))))))))))) 1))))))))))))
(check-sat)
(exit)
